 # Version information for this restart file 
 # current date 2018-04-30 16:12:11.476
 # current working dir /groups/hxin_lab/jiamin/SingleAtom/bulk/bulk_script
 # Program compiled at                              Thu Jun  2 11:39:03 EDT 2016
 # Program compiled on                                                  brlogin1
 # Program compiled for                                    Linux-x86-64-gfortran
 # Source code revision number                                       git:8fef126
 &GLOBAL
   PRINT_LEVEL  LOW
   PROJECT_NAME MgAl2O4
   RUN_TYPE  CELL_OPT
 &END GLOBAL
 &MOTION
   &CELL_OPT
     OPTIMIZER  CG
     MAX_ITER  1000
     STEP_START_VAL  52
     KEEP_ANGLES  T
     &CG
       &LINE_SEARCH
         TYPE  2PNT
       &END LINE_SEARCH
     &END CG
   &END CELL_OPT
   &CONSTRAINT
     &FIXED_ATOMS
       COMPONENTS_TO_FIX  XYZ
       LIST 
     &END FIXED_ATOMS
   &END CONSTRAINT
 &END MOTION
 &FORCE_EVAL
   METHOD  QS
   STRESS_TENSOR  ANALYTICAL
   &DFT
     BASIS_SET_FILE_NAME BASIS_MOLOPT
     POTENTIAL_FILE_NAME GTH_POTENTIALS
     UKS  T
     MULTIPLICITY  0
     CHARGE  0
     &SCF
       MAX_SCF  100
       EPS_SCF     9.9999999999999995E-07
       SCF_GUESS  RESTART
       &OT  T
         MINIMIZER  CG
         PRECONDITIONER  FULL_ALL
         ENERGY_GAP     1.0000000000000000E-03
       &END OT
       &OUTER_SCF  T
         EPS_SCF     9.9999999999999995E-07
         MAX_SCF  30
       &END OUTER_SCF
     &END SCF
     &MGRID
       NGRIDS  4
       CUTOFF     4.8000000000000000E+02
       REL_CUTOFF     6.0000000000000000E+01
     &END MGRID
     &XC
       DENSITY_CUTOFF     1.0000000000000000E-10
       GRADIENT_CUTOFF     1.0000000000000000E-10
       TAU_CUTOFF     1.0000000000000000E-10
       &XC_GRID
         XC_SMOOTH_RHO  NN50
         XC_DERIV  SPLINE3
       &END XC_GRID
       &XC_FUNCTIONAL  NO_SHORTCUT
         &PBE  T
         &END PBE
       &END XC_FUNCTIONAL
       &VDW_POTENTIAL
         POTENTIAL_TYPE  PAIR_POTENTIAL
         &PAIR_POTENTIAL
           TYPE  DFTD3
           PARAMETER_FILE_NAME dftd3.dat
           REFERENCE_FUNCTIONAL PBE
         &END PAIR_POTENTIAL
       &END VDW_POTENTIAL
     &END XC
     &POISSON
       POISSON_SOLVER  PERIODIC
       PERIODIC  XYZ
     &END POISSON
   &END DFT
   &SUBSYS
     &CELL
       A     1.6292223712302590E+01    0.0000000000000000E+00    0.0000000000000000E+00
       B     0.0000000000000000E+00    1.6292088552701202E+01    0.0000000000000000E+00
       C     0.0000000000000000E+00    0.0000000000000000E+00    1.6289981971029206E+01
       PERIODIC  XYZ
       MULTIPLE_UNIT_CELL  1 1 1
     &END CELL
     &COORD
Mg   -3.6029752319417310E-02   -3.6049884965123895E-02   -3.6287572609146043E-02
Mg    3.6229893102201927E-02    4.1092693469776878E+00    4.0362512370526877E+00
Mg    4.0366788475828139E+00    4.1089977222946894E+00    3.5946742060952726E-02
Mg    4.1096283400102447E+00    3.6240656412928361E-02    4.0362509106236999E+00
Mg    6.1462308983327221E+00    2.0728501036592064E+00    6.1443295860130842E+00
Mg    2.0000499437387518E+00    2.0002574504300514E+00    2.0722200595112779E+00
Mg    2.0732719616389783E+00    6.0731921921379852E+00    6.1449969948196133E+00
Mg    6.1456511215653977E+00    6.0733289070764434E+00    2.0000459091354585E+00
Al    5.1070932706144685E+00    5.0896952375593605E+00    5.0800326894278545E+00
Al    3.0545330937898698E+00    7.1272731572328070E+00    1.0074932011018158E+00
Al    7.1352973020601986E+00    1.0103633026605365E+00    3.0417945353420039E+00
Al    1.0092225054172936E+00    3.0476549603915370E+00    7.1180836386349773E+00
Al    7.1236847059124715E+00    3.0439370815128082E+00    1.0038467094796111E+00
Al    3.0609078760542636E+00    1.0243725224391167E+00    7.1172567589238369E+00
Al    1.0179495435925272E+00    7.1341591746606827E+00    3.0545855114690412E+00
Al    5.0948803894909789E+00    1.0232795088795892E+00    1.0108205296861885E+00
Al    3.0582416988570298E+00    3.0487603489629018E+00    5.0824186879112450E+00
Al    7.1466173243770275E+00    5.1054172691731541E+00    7.1213937702307826E+00
Al    7.1248488585898260E+00    7.1280352344914544E+00    5.0801889156522524E+00
Al    3.0553154539323506E+00    5.0900722361407551E+00    3.0494008139770741E+00
Al    1.0069688746819758E+00    5.1066547697800635E+00    1.0075795488425323E+00
Al    5.0969687213675172E+00    3.0577555373902219E+00    3.0478711484119971E+00
Al    5.0976665317364889E+00    7.1318534951482384E+00    7.1236109952239115E+00
Al    1.0112747181819837E+00    1.0144790675320230E+00    5.0999841672262116E+00
O    3.1663504410507644E+00    3.1627404596085844E+00    3.1609615391271366E+00
O    4.9872556199641709E+00    9.1916126591948677E-01    7.2356541599835769E+00
O    9.1831059730846454E-01    7.2323758858748857E+00    4.9856308191206908E+00
O    7.2519543439092686E+00    4.9674997566150214E+00    8.9098259151673187E-01
O    1.1395888913755967E+00    5.2171511803609647E+00    2.9284565328478247E+00
O    7.0293363243678870E+00    7.0289803670825801E+00    7.0170569203366471E+00
O    5.2050090296738212E+00    2.9493671709491167E+00    1.1232435169349460E+00
O    2.9457755145814586E+00    1.1284551492082562E+00    5.1955165448003262E+00
O    5.2204015891533375E+00    1.1431986744488662E+00    2.9236108482196728E+00
O    1.1314223110476069E+00    2.9438596160968977E+00    5.1955767034239173E+00
O    2.9295662571944714E+00    5.2187483655783868E+00    1.1355410307245548E+00
O    9.0764221652543053E-01    4.9712526991930046E+00    7.2381300361988510E+00
O    4.9877653785957188E+00    7.2366172379657252E+00    9.0315555991009389E-01
O    7.2445619363931240E+00    9.0855517430187427E-01    4.9784195288550563E+00
O    3.1753371752088113E+00    7.2413481666201900E+00    7.2443456835879978E+00
O    4.9826473673802623E+00    4.9784076751093735E+00    3.1562895117582697E+00
O    9.0658898407232402E-01    3.1701202812653428E+00    9.1257224090894029E-01
O    1.1347282825379637E+00    1.1249544648975458E+00    7.0178479418158792E+00
O    7.0203751789677993E+00    2.9380055124970825E+00    2.9277380551847521E+00
O    5.2051276385182170E+00    7.0147637202081956E+00    5.1963724657424732E+00
O    5.2168090413475401E+00    5.2061125999062368E+00    7.0056447079693918E+00
O    1.1255411804886439E+00    7.0288610202745980E+00    1.1261009819580816E+00
O    8.9413939955943444E-01    8.9465969105387677E-01    3.1828068768805657E+00
O    4.9871113134538536E+00    3.1643692097276315E+00    4.9770493860435892E+00
O    7.2547967655416654E+00    3.1816718914478894E+00    7.2492671954772057E+00
O    3.1760483350769224E+00    4.9739435221963308E+00    4.9709845044796657E+00
O    2.9329769123261187E+00    7.0088860633766572E+00    2.9259335092053900E+00
O    7.0273953050146831E+00    1.1232755073711616E+00    1.1093998513749528E+00
O    7.0329840385118141E+00    5.1985048008633932E+00    5.1905217694351649E+00
O    3.1656459264431684E+00    9.1240044842375656E-01    9.1530233086473334E-01
O    7.2379152456160130E+00    7.2387323796022649E+00    3.1523231844648660E+00
O    2.9409427871686908E+00    2.9395584287104204E+00    7.0060394889439888E+00
Mg    3.5919294335872189E-02   -3.6008048968686722E-02    8.1811135951461953E+00
Mg   -3.6401764385588724E-02    4.0364879814080910E+00    1.2254005725350249E+01
Mg    4.1098188987054725E+00    4.0369516909327023E+00    8.1086103873597999E+00
Mg    4.0367433084523938E+00   -3.5608743416224838E-02    1.2181415892672939E+01
Mg    6.1454496417213020E+00    2.0000141365994590E+00    1.4290149558696635E+01
Mg    2.0728266343508857E+00    2.0731777854767390E+00    1.0145232964090923E+01
Mg    2.0726989536137435E+00    6.1457996277880476E+00    1.4217231589284683E+01
Mg    6.1461696859783554E+00    6.1458504488035839E+00    1.0145160400221737E+01
Al    5.0956281790385320E+00    5.0858842255617143E+00    1.3235004849922488E+01
Al    3.0662482268279438E+00    7.1207701262162955E+00    9.1699704036177874E+00
Al    7.1185043846479443E+00    1.0112481778406892E+00    1.1198081636362112E+01
Al    1.0186330822154053E+00    3.0558081204191918E+00    1.5274607703304270E+01
Al    7.1330012308133153E+00    3.0655436203880151E+00    9.1696775917511406E+00
Al    3.0514112477804436E+00    1.0304641061354001E+00    1.5278923346337566E+01
Al    1.0175006766297372E+00    7.1190933428548933E+00    1.1204414511982517E+01
Al    5.0904314655755192E+00    1.0264141685017312E+00    9.1623513621805799E+00
Al    3.0667826493357828E+00    3.0497252562654174E+00    1.3241015700662292E+01
Al    7.1210728821334195E+00    5.0849439272850079E+00    1.5266177853250943E+01
Al    7.1388651219395571E+00    7.1215288607971594E+00    1.3238655208695324E+01
Al    3.0686381777929164E+00    5.0940785542623077E+00    1.1198016349049897E+01
Al    1.0288248716107165E+00    5.0785475322508367E+00    9.1692556499807889E+00
Al    5.0961990486790825E+00    3.0573488080640088E+00    1.1208506952219411E+01
Al    5.0990392208671906E+00    7.1306643020577845E+00    1.5270368138127967E+01
Al    1.0209859408923869E+00    1.0201373771019380E+00    1.3232290378312770E+01
O    3.1800341224293796E+00    3.1695976439476987E+00    1.1316046226998928E+01
O    4.9767964467806562E+00    9.0470579969745191E-01    1.5391081608688630E+01
O    9.0026205720660835E-01    7.2443173371936087E+00    1.3122426960240018E+01
O    7.2484901446144150E+00    4.9809154013199466E+00    9.0455719103597030E+00
O    1.1287544513774463E+00    5.1902241998773002E+00    1.1095348583607622E+01
O    7.0148003432872414E+00    7.0064705461625438E+00    1.5160785525185894E+01
O    5.2101206629398931E+00    2.9391962574872816E+00    9.2766075655047100E+00
O    2.9450908614858884E+00    1.1236576738908066E+00    1.3348940707430879E+01
O    5.1980366577067052E+00    1.1230098582065668E+00    1.1084973244683948E+01
O    1.1359920344650467E+00    2.9360647903440520E+00    1.3353914970358597E+01
O    2.9557115665614551E+00    5.1900644353351026E+00    9.2679821754332696E+00
O    9.1169202079194334E-01    4.9868852997564677E+00    1.5377123392725862E+01
O    4.9844774427214240E+00    7.2450252968837354E+00    9.0469814108818642E+00
O    7.2447419109092479E+00    9.0146955156162745E-01    1.3121763868303576E+01
O    3.1778541167463374E+00    7.2448421942727732E+00    1.5380587689709637E+01
O    4.9983591409372794E+00    4.9848429145688478E+00    1.1305518230281599E+01
O    9.0486459788845064E-01    3.1636048699578585E+00    9.0397529543962261E+00
O    1.1267004844489481E+00    1.1245330869762780E+00    1.5162117840211071E+01
O    7.0132961576222268E+00    2.9327640981558751E+00    1.1085746653199861E+01
O    5.2119079724434565E+00    7.0128391428363637E+00    1.3352922746020477E+01
O    5.1995570429018096E+00    5.2018939698675641E+00    1.5166297145025762E+01
O    1.1405988944693817E+00    7.0033145490162019E+00    9.2784613579839554E+00
O    9.1359258877861027E-01    9.0955155371393859E-01    1.1302285067508125E+01
O    4.9962479492101304E+00    3.1578418299311712E+00    1.3132119130661350E+01
O    7.2475638409300789E+00    3.1671368152209975E+00    1.5379816338984392E+01
O    3.1794526316574996E+00    4.9743134987119566E+00    1.3120321358258048E+01
O    2.9527767452483831E+00    7.0212877916002547E+00    1.1097788425802092E+01
O    7.0120960738672062E+00    1.1365573546332532E+00    9.2750808614301974E+00
O    7.0132184763660694E+00    5.2034350916508156E+00    1.3355613620480819E+01
O    3.1713875828017235E+00    9.0921772259462841E-01    9.0445749785226059E+00
O    7.2493471617519880E+00    7.2460159572523679E+00    1.1316865143965819E+01
O    2.9433062720971273E+00    2.9449468542786015E+00    1.5165543612412536E+01
Mg   -3.6313401170662639E-02    8.1821172808366089E+00    3.6060611240474882E-02
Mg   -3.6008716671419430E-02    1.2255230495946309E+01    4.0364501410338107E+00
Mg    4.0366456675331026E+00    1.2255204107845586E+01   -3.6200790647425353E-02
Mg    4.0371726264593146E+00    8.1100181330208692E+00    4.0364320613236702E+00
Mg    6.1458428698439143E+00    1.0146365892080691E+01    6.1446996846830872E+00
Mg    2.0728642249647180E+00    1.0146622019368465E+01    2.0002164673927001E+00
Mg    2.0728703853359294E+00    1.4291509992981076E+01    6.1445866399072671E+00
Mg    6.0730519330215484E+00    1.4219152373655630E+01    1.9999559167315581E+00
Al    5.0941295448466635E+00    1.3228472712965935E+01    5.0885672517414484E+00
Al    3.0493827989717213E+00    1.5286758609805137E+01    1.0285000829524868E+00
Al    7.1208552343264175E+00    9.1711138281567646E+00    3.0542002501098331E+00
Al    1.0261936657777040E+00    1.1203636307650088E+01    7.1228975016093656E+00
Al    7.1214224803276354E+00    1.1200194959303836E+01    1.0202909289966260E+00
Al    3.0615256817524852E+00    9.1732579109572558E+00    7.1237462316353160E+00
Al    1.0214974685541505E+00    1.5272156156162543E+01    3.0633081819459247E+00
Al    5.0979334372513687E+00    9.1715948329256101E+00    1.0077618663728918E+00
Al    3.0571619005326358E+00    1.1202948455144792E+01    5.0949229086428822E+00
Al    7.1283042639324838E+00    1.3240562591008247E+01    7.1185118127510671E+00
Al    7.1290487149706978E+00    1.5270077040973538E+01    5.0805281596528440E+00
Al    3.0526034811971878E+00    1.3234186987887087E+01    3.0634135824488418E+00
Al    1.0242850802399468E+00    1.3237243336376155E+01    1.0162739517793153E+00
Al    5.0868630183538537E+00    1.1195088957948954E+01    3.0609314135315095E+00
Al    5.0967144075610582E+00    1.5287040536382285E+01    7.1084955752214185E+00
Al    1.0243989234578976E+00    9.1744332670640691E+00    5.0886269570460367E+00
O    3.1647542281057728E+00    1.1309657543284889E+01    3.1637183351435469E+00
O    4.9821125567349238E+00    9.0487142718694358E+00    7.2462780351341092E+00
O    9.0806475758283345E-01    1.5384654483036055E+01    4.9873590483948016E+00
O    7.2427909542220181E+00    1.3121807454251435E+01    9.0099432019643078E-01
O    1.1320998852214486E+00    1.3357312909978861E+01    2.9353857682284539E+00
O    7.0113579639200934E+00    1.5163831320881018E+01    7.0066941037840555E+00
O    5.1938850995818289E+00    1.1100530770203738E+01    1.1208136653316958E+00
O    2.9467250388794266E+00    9.2749960013084181E+00    5.1987202028344344E+00
O    5.1971368347813742E+00    9.2744321236103175E+00    2.9377952321003495E+00
O    1.1261836187932959E+00    1.1098784106742734E+01    5.1951206007584769E+00
O    2.9396511933189342E+00    1.3359946826781233E+01    1.1315467318604802E+00
O    9.1403611759317793E-01    1.3129415958949386E+01    7.2418016441332567E+00
O    4.9742660004665566E+00    1.5391193122165992E+01    9.0521798830012568E-01
O    7.2459981966679630E+00    9.0492263971696936E+00    4.9698410524912173E+00
O    3.1800640003077261E+00    1.5403182146078757E+01    7.2477403422058737E+00
O    4.9729394160631299E+00    1.3119348873619542E+01    3.1691548310112445E+00
O    9.0879524186670413E-01    1.1308049259905932E+01    9.0676715695110444E-01
O    1.1407986241504309E+00    9.2801081993692822E+00    7.0093405721477113E+00
O    7.0158865222545739E+00    1.1094755697694175E+01    2.9403893180632981E+00
O    5.2027001719209833E+00    1.5165760421914914E+01    5.1948249714949641E+00
O    5.2081528408105706E+00    1.3361349050516123E+01    7.0127107592641673E+00
O    1.1242523336566252E+00    1.5166094358507292E+01    1.1271639794527326E+00
O    9.0856735819435586E-01    9.0535139325880163E+00    3.1613744887885060E+00
O    4.9882306097034101E+00    1.1305196247977312E+01    4.9875890125864180E+00
O    7.2424838326657222E+00    1.1318715649971324E+01    7.2443621454496903E+00
O    3.1690179665670186E+00    1.3129563375832614E+01    4.9827444124218845E+00
O    2.9447963398754800E+00    1.5169201415814202E+01    2.9441158564873819E+00
O    7.0103779172520095E+00    9.2823069364796140E+00    1.1333656004402908E+00
O    7.0206108411377661E+00    1.3349373337946128E+01    5.1977920194088743E+00
O    3.1835548532824713E+00    9.0403342692190130E+00    8.8945615187893090E-01
O    7.2328751343158224E+00    1.5377071882260330E+01    3.1557322309116054E+00
O    2.9548187215136021E+00    1.1097271873338704E+01    7.0227830239939104E+00
Mg    3.6736034288944217E-02    8.1097704065933236E+00    8.1087343682461821E+00
Mg    3.6189501253888152E-02    1.2255114064380260E+01    1.2253766053760700E+01
Mg    4.1094528943747246E+00    1.2255134612977374E+01    8.1808996495263280E+00
Mg    4.1098278341867172E+00    8.1821944111977487E+00    1.2253849686207765E+01
Mg    6.1460974463296729E+00    1.0218954675941390E+01    1.4217648650810963E+01
Mg    2.0727276925894067E+00    1.0146029423779055E+01    1.0217570712995553E+01
Mg    2.0725429301278742E+00    1.4292087219167147E+01    1.4290003610997582E+01
Mg    6.0735767374889775E+00    1.4291984747171391E+01    1.0144969253711025E+01
Al    5.0823064836772049E+00    1.3250421631492390E+01    1.3232454099910758E+01
Al    3.0537592764733068E+00    1.5277319626562376E+01    9.1618044157875591E+00
Al    7.1408694607814827E+00    9.1687834134372466E+00    1.1202188976830721E+01
Al    1.0143231690714773E+00    1.1195249530646358E+01    1.5273592473420633E+01
Al    7.1262021420595936E+00    1.1216525364885827E+01    9.1683337557873799E+00
Al    3.0632956494479138E+00    9.1658137237314055E+00    1.5264920497671293E+01
Al    1.0108978896049496E+00    1.5272871263482800E+01    1.1197823233095852E+01
Al    5.0917685940645967E+00    9.1644858197009871E+00    9.1646305520658178E+00
Al    3.0511894233918238E+00    1.1204549928444081E+01    1.3240175157285863E+01
Al    7.1217277976631319E+00    1.3238299971466882E+01    1.5277352182134573E+01
Al    7.1165466534979318E+00    1.5279174328510047E+01    1.3226322877701305E+01
Al    3.0506480593684886E+00    1.3235257093461648E+01    1.1198826501182484E+01
Al    1.0226090652177633E+00    1.3217369350484288E+01    9.1658141867208958E+00
Al    5.0984202505368703E+00    1.1209132437045355E+01    1.1200458868229079E+01
Al    5.0911018677275051E+00    1.5284903567342997E+01    1.5273205796561745E+01
Al    1.0054095536331895E+00    9.1627495277124726E+00    1.3240856057001359E+01
O    3.1739159683524449E+00    1.1317434335125313E+01    1.1319344500661114E+01
O    4.9934058847064886E+00    9.0611783161670321E+00    1.5367974470518845E+01
O    9.0827979847788765E-01    1.5381544815081423E+01    1.3125403268524966E+01
O    7.2305199454484361E+00    1.3135913962781075E+01    9.0499257797468502E+00
O    1.1380580567331684E+00    1.3349968783050608E+01    1.1086805451028109E+01
O    7.0097418764575288E+00    1.5161815549877968E+01    1.5153326634660406E+01
O    5.2098107223283421E+00    1.1089862319392052E+01    9.2830851751143655E+00
O    2.9388090354337959E+00    9.2820018537929574E+00    1.3351319479015967E+01
O    5.2113708361042494E+00    9.2851693605952015E+00    1.1088305035003083E+01
O    1.1349646228847239E+00    1.1085433074865053E+01    1.3353770272404045E+01
O    2.9480029838664379E+00    1.3354285049846537E+01    9.2788721032832857E+00
O    9.1056988215697188E-01    1.3126447113179516E+01    1.5380142275277217E+01
O    4.9698848147099470E+00    1.5401513568389412E+01    9.0368495516367169E+00
O    7.2461031827558218E+00    9.0482166335755458E+00    1.3120523363845740E+01
O    3.1767447269339764E+00    1.5400091455466695E+01    1.5398803414462332E+01
O    4.9782770992567178E+00    1.3134831585329273E+01    1.1307403589936657E+01
O    9.2069731072631211E-01    1.1302323381942481E+01    9.0586023484905649E+00
O    1.1288527439125495E+00    9.2742973186166111E+00    1.5166720965567286E+01
O    7.0197424519280656E+00    1.1096504121782885E+01    1.1095684471928049E+01
O    5.1941479073522929E+00    1.5168081162944855E+01    1.3344633209222083E+01
O    5.2002631274362976E+00    1.3360440642982356E+01    1.5157514350285094E+01
O    1.1444465898417313E+00    1.5145818256319160E+01    9.2822682870396154E+00
O    9.0404292077742054E-01    9.0457623831858971E+00    1.1319685472940062E+01
O    4.9783527945251702E+00    1.1324626889383163E+01    1.3120593868530799E+01
O    7.2420819056255956E+00    1.1320708138326864E+01    1.5385878453043867E+01
O    3.1643066231020263E+00    1.3132334611535999E+01    1.3128864385847240E+01
O    2.9343827041196837E+00    1.5150840060554136E+01    1.1075827699626158E+01
O    7.0175741871333770E+00    9.2862998218056187E+00    9.2814475654882926E+00
O    7.0000945548933062E+00    1.3361830967398500E+01    1.3360145961981964E+01
O    3.1756196972454656E+00    9.0462999537633575E+00    9.0518387612542348E+00
O    7.2319334691810164E+00    1.5383400875892486E+01    1.1307619900453769E+01
O    2.9371455554894457E+00    1.1087276672577898E+01    1.5156700001863516E+01
Mg    8.1824086387419932E+00   -3.6629480140027725E-02   -3.6270587773492430E-02
Mg    8.1823971009291636E+00    4.0365211134362013E+00    4.0361186697864158E+00
Mg    1.2255791960318007E+01    4.0367491467982308E+00    3.6195810306790747E-02
Mg    1.2182786917205572E+01   -3.6262836146383905E-02    4.0363545623771460E+00
Mg    1.4219509033449730E+01    2.0725252822179958E+00    6.0723029538418558E+00
Mg    1.0146386648137296E+01    2.0723073254284081E+00    2.0000234068643561E+00
Mg    1.0146255391156801E+01    6.1458334605933418E+00    6.0725226370107386E+00
Mg    1.4219621749671161E+01    6.1458790181615601E+00    2.0726281526636301E+00
Al    1.3234276956698476E+01    5.1036527541895911E+00    5.0796094288687312E+00
Al    1.1202236667580445E+01    7.1126405665360171E+00    1.0072019356344866E+00
Al    1.5269878424542133E+01    1.0158324204436924E+00    3.0633310279531845E+00
Al    9.1798304798426358E+00    3.0673077784064229E+00    7.1257520277267403E+00
Al    1.5283389363367830E+01    3.0537456922584494E+00    1.0232185824397986E+00
Al    1.1208706616235675E+01    1.0183865387198223E+00    7.1213541905101012E+00
Al    9.1527433410303249E+00    7.1288251381515693E+00    3.0429825258066532E+00
Al    1.3234799605243767E+01    1.0087618816962853E+00    1.0296388397952849E+00
Al    1.1195039837082543E+01    3.0548307253157163E+00    5.0862587535473285E+00
Al    1.5285454619103099E+01    5.0852227075167358E+00    7.1097704243787163E+00
Al    1.5283104858660263E+01    7.1300327495219902E+00    5.0918607690796662E+00
Al    1.1193770293768091E+01    5.0822382808671103E+00    3.0505616883658337E+00
Al    9.1689182915681453E+00    5.0871549666236113E+00    1.0065236999202536E+00
Al    1.3237135320054032E+01    3.0497120580617230E+00    3.0559819134659998E+00
Al    1.3231060494408577E+01    7.1274724654616897E+00    7.1241527252672538E+00
Al    9.1714554811186542E+00    1.0085956648964083E+00    5.0897016348071604E+00
O    1.1305069056991915E+01    3.1658087601519749E+00    3.1572698824944592E+00
O    1.3127182663926586E+01    9.1407532989503282E-01    7.2331891541077669E+00
O    9.0440076593669616E+00    7.2537982235947771E+00    4.9558102736111271E+00
O    1.5375644722990955E+01    4.9875336058684407E+00    9.1665431171930545E-01
O    9.2767522064055843E+00    5.2010656551467651E+00    2.9306780396959491E+00
O    1.5159721402554084E+01    7.0107165645425891E+00    7.0067958854597006E+00
O    1.3361061569726292E+01    2.9236128367969161E+00    1.1429098727789992E+00
O    1.1092471792538221E+01    1.1279875766057534E+00    5.1968065811544601E+00
O    1.3346191748750837E+01    1.1237987422872748E+00    2.9470622929092367E+00
O    9.2824749420859654E+00    2.9376017067599887E+00    5.2023198728943836E+00
O    1.1091325338395917E+01    5.1930219507565338E+00    1.1232695047444010E+00
O    9.0607783648312026E+00    4.9863223226427031E+00    7.2349971735142287E+00
O    1.3119633772708353E+01    7.2409051769894797E+00    9.0999836413645563E-01
O    1.5380427215541426E+01    9.1017276448951390E-01    4.9823589277836975E+00
O    1.1305510357958202E+01    7.2364435898679842E+00    7.2355978856860537E+00
O    1.3115048838978806E+01    4.9776875639176774E+00    3.1633864493853885E+00
O    9.0430368867058881E+00    3.1759647526156680E+00    8.9301029344928462E-01
O    9.2815171556772480E+00    1.1397527799356582E+00    7.0112691518913701E+00
O    1.5165439025505245E+01    2.9416095942919247E+00    2.9472605767846387E+00
O    1.3346798249009987E+01    7.0199230477373886E+00    5.1927994331159057E+00
O    1.3363815110582397E+01    5.2129304196449127E+00    6.9946554843365547E+00
O    9.2777195741023739E+00    7.0053174087813685E+00    1.1272586051415951E+00
O    9.0541870227169277E+00    9.0683929356499227E-01    3.1604737874436393E+00
O    1.3108452219185155E+01    3.1839480297616762E+00    4.9639336045421443E+00
O    1.5381633541471130E+01    3.1642060369616924E+00    7.2274035212442937E+00
O    1.1303836429483475E+01    4.9867198425212589E+00    4.9735833189921115E+00
O    1.1075557863171044E+01    7.0009553800138296E+00    2.9248970400634913E+00
O    1.5161275148656891E+01    1.1194686013042201E+00    1.1299403041904879E+00
O    1.5164568180210905E+01    5.2031607273172558E+00    5.1889952819832494E+00
O    1.1304364695016274E+01    9.0701655342582788E-01    9.0885590716574804E-01
O    1.5389344150830317E+01    7.2477536067864650E+00    3.1715639239840194E+00
O    1.1097509624693895E+01    2.9474274861421703E+00    7.0106807340777717E+00
Mg    8.1099963389611567E+00    3.6270937620260499E-02    8.1083413216466322E+00
Mg    8.1098395231329441E+00    4.0367436880242584E+00    1.2253718609722021E+01
Mg    1.2255165272482767E+01    4.1092780237860405E+00    8.1088522721183338E+00
Mg    1.2255679397594539E+01    3.6455192461272601E-02    1.2325931914339870E+01
Mg    1.4219739431611231E+01    2.0004540153848178E+00    1.4290189484464607E+01
Mg    1.0146602206969231E+01    2.0001359420150377E+00    1.0144890829281231E+01
Mg    1.0219117118544581E+01    6.0728935796523649E+00    1.4289878098230330E+01
Mg    1.4291928845531254E+01    6.0734068311507245E+00    1.0145322595344432E+01
Al    1.3237886784536393E+01    5.0895133945101838E+00    1.3232166227903505E+01
Al    1.1205357230240274E+01    7.1255206708463277E+00    9.1720493170673745E+00
Al    1.5272350884018856E+01    1.0137775279177459E+00    1.1193665931211362E+01
Al    9.1689413060290779E+00    3.0580549136634678E+00    1.5267385499633752E+01
Al    1.5274054678471549E+01    3.0416598298087338E+00    9.1546115397221950E+00
Al    1.1187956022893216E+01    1.0170878991422394E+00    1.5281463426930996E+01
Al    9.1755889317531025E+00    7.1183288538735932E+00    1.1214412511950329E+01
Al    1.3238206584536421E+01    1.0186376928784460E+00    9.1621567660519982E+00
Al    1.1202141554839089E+01    3.0575529101145134E+00    1.3230803418159825E+01
Al    1.5274251508518317E+01    5.0986016639633815E+00    1.5277774321849527E+01
Al    1.5266678418633388E+01    7.1296747288307110E+00    1.3233020631934906E+01
Al    1.1199951070408909E+01    5.0811848615712698E+00    1.1195860965091622E+01
Al    9.1734762194330255E+00    5.0906624200760264E+00    9.1686525995757044E+00
Al    1.3228591962121317E+01    3.0481984385821557E+00    1.1192377719549846E+01
Al    1.3238115313359835E+01    7.1177825366079466E+00    1.5274334497452054E+01
Al    9.1649130067915827E+00    1.0170698782347536E+00    1.3231684742510332E+01
O    1.1303592885221626E+01    3.1524864309620000E+00    1.1305536144127512E+01
O    1.3106899424672971E+01    8.8634610085914090E-01    1.5393937377079963E+01
O    9.0640519220999582E+00    7.2326544256533296E+00    1.3137486542287000E+01
O    1.5398434603800515E+01    4.9644077236201003E+00    9.0312957556222866E+00
O    9.2691364642529237E+00    5.1910652993746673E+00    1.1096637311835975E+01
O    1.5157408030519914E+01    7.0225648749391842E+00    1.5165649568435942E+01
O    1.3350667686139799E+01    2.9437868001656793E+00    9.2669459630483058E+00
O    1.1079525898873561E+01    1.1399440155659586E+00    1.3366981135628960E+01
O    1.3347638933691497E+01    1.1263836143349715E+00    1.1091843739899575E+01
O    9.2783119901930391E+00    2.9375422669236380E+00    1.3354545886979817E+01
O    1.1093734342123085E+01    5.2011983969240223E+00    9.2739330531669300E+00
O    9.0500833079204224E+00    4.9731887784548912E+00    1.5382183799453113E+01
O    1.3125879756345649E+01    7.2301723157610214E+00    9.0492517829350145E+00
O    1.5380292415164607E+01    9.0085372798336694E-01    1.3126219277296251E+01
O    1.1315538673024516E+01    7.2368384391698219E+00    1.5389289533861014E+01
O    1.3129398929855077E+01    4.9716634784318945E+00    1.1307577520508568E+01
O    9.0502167757536505E+00    3.1701746023895909E+00    9.0447574116843228E+00
O    9.2752535258180639E+00    1.1358113617870091E+00    1.5157668146188792E+01
O    1.5156876730159395E+01    2.9365625233495631E+00    1.1080180653088634E+01
O    1.3340736245765260E+01    7.0190086362501471E+00    1.3351835492037045E+01
O    1.3345423122833347E+01    5.1988295068971864E+00    1.5165250999625066E+01
O    9.2805916992305004E+00    7.0115162548067120E+00    9.2852692728149560E+00
O    9.0431105662101796E+00    9.0303928323070459E-01    1.1314952731347462E+01
O    1.3125823477482102E+01    3.1562482465367032E+00    1.3126262280680185E+01
O    1.5380954114061684E+01    3.1648767223587968E+00    1.5387295944472815E+01
O    1.1319316289982060E+01    4.9696251810109846E+00    1.3120447008246808E+01
O    1.1090653714281981E+01    7.0128612888799795E+00    1.1095769893796330E+01
O    1.5164388702260718E+01    1.1233382690054163E+00    9.2732109805637641E+00
O    1.5153963795471633E+01    5.2079069894623267E+00    1.3355223300952980E+01
O    1.1316182786765919E+01    9.0419513901688664E-01    9.0421738462798658E+00
O    1.5385499777913671E+01    7.2337975269549144E+00    1.1308787301996292E+01
O    1.1092252114162520E+01    2.9445838862574751E+00    1.5168898728709483E+01
Mg    8.1095475886287520E+00    8.1097801198898818E+00    3.6176356226380262E-02
Mg    8.1820845354924074E+00    1.2255095425045912E+01    4.0362285006098855E+00
Mg    1.2182875371269899E+01    1.2255114717343702E+01    3.6129919942233926E-02
Mg    1.2182765050972225E+01    8.1099512436327128E+00    4.0364128280017217E+00